45 22
48 49
65 6
68 42
68 36
10 1
84 32
22 6
37 31
88 1
71 37
89 35
89 49
13 30
59 4
66 35
40 43
88 14
47 49
89 40
82 22
38 10
26 1
78 11
73 44
10 24
21 3
81 35
70 36
80 31
48 4
65 19
83 47
89 36
50 21
30 18
20 28
20 15
15 42
40 2
33 37
66 11
10 23
58 44
33 41
32 12
75 3
24 17
36 33
76 1
56 39
29 20
35 47
1 43
1 41
37 14
54 31
6 25
39 3
18 4
80 31
5 35
43 44
59 14
32 49
2 41
66 9
42 20
58 32
36 9
12 27
47 3
83 4
92 45
1 15
15 33
54 5
13 4
43 46
85 12
76 23
69 14
7 46
69 12
48 17
4 25
77 30
53 22
79 47
16 26
21 17
59 20
24 34
80 41
14 33
2728 531
2751 513
2621 571
2826 556
2969 524
